NAME : KROB199C
TYPE : PDTSP
DIMENSION : 199
EDGE_WEIGHT_TYPE : EUC_2D
NODE_COORD_SECTION
1 3140 1401
2 556 1056
3 3675 1522
4 1182 1853
5 3595 111
6 962 1895
7 2030 1186
8 3507 1851
9 2642 1269
10 3438 901
11 3858 1472
12 2937 1568
13 376 1018
14 839 1355
15 706 1925
16 749 920
17 298 615
18 694 552
19 387 190
20 2801 695
21 3133 1143
22 1517 266
23 1538 224
24 844 520
25 2639 1239
26 3123 217
27 2489 1520
28 3834 1827
29 3417 1808
30 2938 543
31 71 1323
32 3245 1828
33 731 1741
34 2312 1270
35 2426 1851
36 380 478
37 2310 635
38 2830 775
39 3829 513
40 3684 445
41 171 514
42 627 1261
43 1490 1123
44 61 81
45 422 542
46 2698 1221
47 2372 127
48 177 1390
49 3084 748
50 1213 910
51 3 1817
52 1782 995
53 3896 742
54 1829 812
55 1286 550
56 3017 108
57 2132 1432
58 2000 1110
59 3317 1966
60 1729 1498
61 2408 1747
62 3292 152
63 193 1210
64 782 1462
65 2503 352
66 1697 1924
67 3821 147
68 3370 791
69 3162 367
70 3938 516
71 2741 1583
72 2330 741
73 3918 1088
74 1794 1589
75 2929 485
76 3453 1998
77 896 705
78 399 850
79 2614 195
80 2800 653
81 2630 20
82 563 1513
83 1090 1652
84 2009 1163
85 3876 1165
86 3084 774
87 1526 1612
88 1612 328
89 1423 1322
90 3058 1276
91 3782 1865
92 347 252
93 3904 1444
94 2191 1579
95 3220 1454
96 468 319
97 3611 1968
98 3114 1629
99 3515 1892
100 3060 155
101 2995 264
102 202 233
103 981 848
104 1346 408
105 781 670
106 1009 1001
107 2927 1777
108 2982 949
109 555 1121
110 464 1302
111 3452 637
112 571 1982
113 2656 128
114 1623 1723
115 2067 694
116 1725 927
117 3600 459
118 1109 1196
119 366 339
120 778 1282
121 386 1616
122 3918 1217
123 3332 1049
124 2597 349
125 811 1295
126 241 1069
127 2658 360
128 394 1944
129 3786 1862
130 264 36
131 2050 1833
132 3538 125
133 1646 1817
134 2993 624
135 547 25
136 3373 1902
137 460 267
138 3060 781
139 1828 456
140 1021 962
141 2347 388
142 3535 1112
143 1529 581
144 1787 1902
145 2740 1101
146 555 1753
147 47 363
148 3935 540
149 3062 329
150 387 199
151 2901 920
152 931 512
153 1766 692
154 401 980
155 149 1629
156 2214 1977
157 3805 1619
158 1179 969
159 1017 333
160 2834 1512
161 634 294
162 1819 814
163 1393 859
164 1768 1578
165 3023 871
166 3248 1906
167 1632 1742
168 2223 990
169 3868 697
170 1541 354
171 2374 1944
172 1962 389
173 3007 1524
174 3220 1945
175 2356 1568
176 1604 706
177 2028 1736
178 2581 121
179 2221 1578
180 2944 632
181 1082 1561
182 997 942
183 2334 523
184 1264 1090
185 1699 1294
186 235 1059
187 2592 248
188 3642 699
189 3599 514
190 1766 678
191 240 619
192 1272 246
193 3503 301
194 80 1533
195 1677 1238
196 3766 154
197 3946 459
198 1994 1852
199 278 165
PICKUP_AND_DELIVERY_SECTION
1 0 0 0 0 0 0
2 0 0 0 0 0 184
3 0 0 0 0 0 93
4 0 0 0 0 35 0
5 0 0 0 0 121 0
6 0 0 0 0 79 0
7 0 0 0 0 185 0
8 0 0 0 0 0 99
9 0 0 0 0 137 0
10 0 0 0 0 84 0
11 0 0 0 0 0 23
12 0 0 0 0 0 108
13 0 0 0 0 166 0
14 0 0 0 0 0 96
15 0 0 0 0 0 122
16 0 0 0 0 158 0
17 0 0 0 0 0 128
18 0 0 0 0 0 57
19 0 0 0 0 167 0
20 0 0 0 0 0 143
21 0 0 0 0 0 170
22 0 0 0 0 0 98
23 0 0 0 0 11 0
24 0 0 0 0 0 164
25 0 0 0 0 0 188
26 0 0 0 0 135 0
27 0 0 0 0 102 0
28 0 0 0 0 171 0
29 0 0 0 0 0 36
30 0 0 0 0 148 0
31 0 0 0 0 0 150
32 0 0 0 0 0 155
33 0 0 0 0 85 0
34 0 0 0 0 197 0
35 0 0 0 0 0 4
36 0 0 0 0 29 0
37 0 0 0 0 40 0
38 0 0 0 0 123 0
39 0 0 0 0 0 76
40 0 0 0 0 0 37
41 0 0 0 0 0 81
42 0 0 0 0 89 0
43 0 0 0 0 181 0
44 0 0 0 0 159 0
45 0 0 0 0 191 0
46 0 0 0 0 60 0
47 0 0 0 0 136 0
48 0 0 0 0 61 0
49 0 0 0 0 83 0
50 0 0 0 0 139 0
51 0 0 0 0 0 149
52 0 0 0 0 54 0
53 0 0 0 0 0 133
54 0 0 0 0 0 52
55 0 0 0 0 70 0
56 0 0 0 0 0 182
57 0 0 0 0 18 0
58 0 0 0 0 111 0
59 0 0 0 0 0 65
60 0 0 0 0 0 46
61 0 0 0 0 0 48
62 0 0 0 0 0 129
63 0 0 0 0 0 72
64 0 0 0 0 0 67
65 0 0 0 0 59 0
66 0 0 0 0 0 107
67 0 0 0 0 64 0
68 0 0 0 0 75 0
69 0 0 0 0 0 132
70 0 0 0 0 0 55
71 0 0 0 0 162 0
72 0 0 0 0 63 0
73 0 0 0 0 114 0
74 0 0 0 0 0 103
75 0 0 0 0 0 68
76 0 0 0 0 39 0
77 0 0 0 0 100 0
78 0 0 0 0 169 0
79 0 0 0 0 0 6
80 0 0 0 0 178 0
81 0 0 0 0 41 0
82 0 0 0 0 0 172
83 0 0 0 0 0 49
84 0 0 0 0 0 10
85 0 0 0 0 0 33
86 0 0 0 0 0 131
87 0 0 0 0 190 0
88 0 0 0 0 144 0
89 0 0 0 0 0 42
90 0 0 0 0 0 130
91 0 0 0 0 0 163
92 0 0 0 0 0 187
93 0 0 0 0 3 0
94 0 0 0 0 0 105
95 0 0 0 0 125 0
96 0 0 0 0 14 0
97 0 0 0 0 0 117
98 0 0 0 0 22 0
99 0 0 0 0 8 0
100 0 0 0 0 0 77
101 0 0 0 0 173 0
102 0 0 0 0 0 27
103 0 0 0 0 74 0
104 0 0 0 0 0 134
105 0 0 0 0 94 0
106 0 0 0 0 157 0
107 0 0 0 0 66 0
108 0 0 0 0 12 0
109 0 0 0 0 199 0
110 0 0 0 0 113 0
111 0 0 0 0 0 58
112 0 0 0 0 0 116
113 0 0 0 0 0 110
114 0 0 0 0 0 73
115 0 0 0 0 152 0
116 0 0 0 0 112 0
117 0 0 0 0 97 0
118 0 0 0 0 154 0
119 0 0 0 0 0 156
120 0 0 0 0 0 142
121 0 0 0 0 0 5
122 0 0 0 0 15 0
123 0 0 0 0 0 38
124 0 0 0 0 168 0
125 0 0 0 0 0 95
126 0 0 0 0 183 0
127 0 0 0 0 165 0
128 0 0 0 0 17 0
129 0 0 0 0 62 0
130 0 0 0 0 90 0
131 0 0 0 0 86 0
132 0 0 0 0 69 0
133 0 0 0 0 53 0
134 0 0 0 0 104 0
135 0 0 0 0 0 26
136 0 0 0 0 0 47
137 0 0 0 0 0 9
138 0 0 0 0 151 0
139 0 0 0 0 0 50
140 0 0 0 0 194 0
141 0 0 0 0 0 145
142 0 0 0 0 120 0
143 0 0 0 0 20 0
144 0 0 0 0 0 88
145 0 0 0 0 141 0
146 0 0 0 0 196 0
147 0 0 0 0 195 0
148 0 0 0 0 0 30
149 0 0 0 0 51 0
150 0 0 0 0 31 0
151 0 0 0 0 0 138
152 0 0 0 0 0 115
153 0 0 0 0 0 192
154 0 0 0 0 0 118
155 0 0 0 0 32 0
156 0 0 0 0 119 0
157 0 0 0 0 0 106
158 0 0 0 0 0 16
159 0 0 0 0 0 44
160 0 0 0 0 161 0
161 0 0 0 0 0 160
162 0 0 0 0 0 71
163 0 0 0 0 91 0
164 0 0 0 0 24 0
165 0 0 0 0 0 127
166 0 0 0 0 0 13
167 0 0 0 0 0 19
168 0 0 0 0 0 124
169 0 0 0 0 0 78
170 0 0 0 0 21 0
171 0 0 0 0 0 28
172 0 0 0 0 82 0
173 0 0 0 0 0 101
174 0 0 0 0 193 0
175 0 0 0 0 0 179
176 0 0 0 0 0 186
177 0 0 0 0 198 0
178 0 0 0 0 0 80
179 0 0 0 0 175 0
180 0 0 0 0 0 189
181 0 0 0 0 0 43
182 0 0 0 0 56 0
183 0 0 0 0 0 126
184 0 0 0 0 2 0
185 0 0 0 0 0 7
186 0 0 0 0 176 0
187 0 0 0 0 92 0
188 0 0 0 0 25 0
189 0 0 0 0 180 0
190 0 0 0 0 0 87
191 0 0 0 0 0 45
192 0 0 0 0 153 0
193 0 0 0 0 0 174
194 0 0 0 0 0 140
195 0 0 0 0 0 147
196 0 0 0 0 0 146
197 0 0 0 0 0 34
198 0 0 0 0 0 177
199 0 0 0 0 0 109
DEPOT_SECTION
1 
-1
EOF
